p cnf 7230 17
-4952 6894 -6900 0
-4954 -6895 -6898 0
-6896 6898 0
-6901 -6902 0
6895 6896 0
6899 6900 0
6859 -6900 0
-6859 -6899 0
4954 -6896 0
6897 6898 0
6857 -6898 0
-6857 -6897 0
-6827 -6861 6902 0
-6893 -6894 0
6893 6894 0
6861 -6902 0
6827 -6902 0
